
(set-logic ALL) 

(declare-datatype MyList ((Nil) (Cons (head Real) (tail MyList)) )) 
(declare-fun l0 () MyList) 
(declare-fun l1 () MyList) 
(declare-fun l2 () MyList) 
(declare-fun l3 () MyList) 
(declare-fun i0 () Real) 
(declare-fun i1 () Real) 
(assert (is-Nil Nil) )
(assert (= l0 l3) )
(assert (= l0 Nil) )
(assert (not (= l0 l3)) )
(assert (or (= l1 Nil) (= l2 Nil)) )
(assert (or (= l2 l1) (= l2 Nil) (= l3 l3)) )
(assert (= l1 Nil) )
(assert (or (is-Nil Nil) (= l3 l3) (= l1 l0)) )
(check-sat)
